11
0 6 9 6 1 1 2 8 7 3 5 
6 0 6 3 5 3 5 8 8 2 8 
9 6 0 1 7 8 7 2 1 2 9 
6 3 1 0 9 4 9 8 4 7 6 
1 5 7 9 0 2 4 5 9 2 5 
1 3 8 4 2 0 1 4 3 1 5 
2 5 7 9 4 1 0 3 8 8 9 
8 8 2 8 5 4 3 0 7 4 8 
7 8 1 4 9 3 8 7 0 8 5 
3 2 2 7 2 1 8 4 8 0 6 
5 8 9 6 5 5 9 8 5 6 0 
